Route #1: 26 7 53 8 46 34
Route #2: 52 27 29 48 47 21
Route #3: 28 61 36 60 20 37 5
Route #4: 15 57 13 54 19 59 14 35
Route #5: 11 38 10 58 12
Route #6: 40 9 32 44 3
Route #7: 39 31 55 25 50 18 24 49
Route #8: 23 56 41 43 42 64 22
Route #9: 62 1 33 63 16 51 17
Route #10: 6 2 30 45 4
Cost 844